1
4

2
3

3
1

4
5

5
6

6
7

7
8

8
9

9
10

10
11

11
12

12
13

13
14

14
15

15
16

16
17

17
33

18
68

19
18

20
19

21
22

22
24

23
21

24
65

25
23

26
27

27
29

28
26

29
63

30
28

31
30

32
31

33
34

34
35

35
36

36
58

37
38

38
40

39
42

40
41

41
43

42
44

43
45

44
47

45
46

46
49

47
48

48
50

49
39

50
51

51
52

52
2

53
54

54
55

55
56

56
82

57
37

58
78

59
60

60
61

61
76

62
32

63
73

64
25

65
66

66
67

67
20

68
69

69
70

70
91

71
72

72
88

73
74

74
64

75
62

76
75

77
59

78
86

79
57

80
79

81
80

82
81

83
53

84
83

85
84

86
87

87
77

88
89

89
107

90
71

91
90

92
93

93
94

94
117

95
96

96
98

97
128

98
97

99
125

100
95

101
100

102
92

103
114

104
102

105
104

106
105

107
106

108
109

109
110

110
111

111
112

112
146

113
108

114
113

115
103

116
118

117
115

118
119

119
121

120
101

121
122

122
120

123
124

124
126

125
123

126
127

127
129

128
99

129
130

130
131

131
132

132
133

133
167

134
135

135
136

136
137

137
138

138
139

139
140

140
141

141
142

142
116

143
152

144
147

145
185

146
144

147
148

148
145

149
85

150
143

151
153

152
151

153
154

154
155

155
156

156
157

157
158

158
159

159
160

160
161

161
162

162
134

163
166

164
163

165
164

166
169

167
165

168
170

169
168

170
171

171
208

172
173

173
174

174
205

175
176

176
177

177
178

178
179

179
180

180
181

181
182

182
183

183
192

184
150

185
190

186
149

187
230

188
187

189
188

190
191

191
193

192
184

193
194

194
195

195
196

196
197

197
198

198
199

199
200

200
201

201
202

202
203

203
204

204
175

205
210

206
172

207
206

208
207

209
253

210
211

211
212

212
213

213
214

214
215

215
216

216
217

217
218

218
219

219
220

220
221

221
222

222
223

223
224

224
233

225
189

226
186

227
226

228
283

229
228

230
281

231
225

232
231

233
234

234
235

235
236

236
237

237
238

238
239

239
240

240
241

241
242

242
243

243
244

244
245

245
246

246
247

247
248

248
249

249
250

250
251

251
209

252
255

253
252

254
256

255
254

256
257

257
258

258
259

259
260

260
261

261
262

262
263

263
264

264
265

265
266

266
267

267
268

268
269

269
270

270
271

271
272

272
301

273
274

274
275

275
276

276
277

277
278

278
279

279
294

280
232

281
282

282
229

283
284

284
344

285
280

286
285

287
286

288
340

289
288

290
289

291
290

292
291

293
292

294
295

295
296

296
338

297
298

298
299

299
300

300
273

301
302

302
303

303
304

304
305

305
306

306
307

307
308

308
309

309
310

310
311

311
312

312
313

313
314

314
315

315
316

316
317

317
318

318
319

319
320

320
321

321
322

322
323

323
324

324
325

325
326

326
327

327
328

328
329

329
331

330
332

331
330

332
333

333
334

334
335

335
336

336
337

337
297

338
339

339
360

340
287

341
374

342
341

343
342

344
343

345
346

346
348

347
349

348
347

349
350

350
351

351
353

352
354

353
352

354
355

355
356

356
358

357
359

358
357

359
293

360
370

361
362

362
363

363
364

364
365

365
366

366
367

367
368

368
369

369
378

370
361

371
383

372
373

373
371

374
375

375
381

376
345

377
376

378
385

379
377

380
379

381
382

382
372

383
384

384
394

385
386

386
387

387
388

388
401

389
390

390
380

391
392

392
399

393
398

394
395

395
393

396
391

397
396

398
397

399
406

400
402

401
400

402
404

403
434

404
405

405
417

406
407

407
413

408
403

409
408

410
411

411
426

412
423

413
412

414
389

415
419

416
415

417
418

418
428

419
420

420
421

421
414

422
432

423
422

424
425

425
410

426
409

427
424

428
429

429
431

430
427

431
416

432
433

433
430

434
438

435
439

436
435

437
436

438
437

439
227

109220